Read MPS format model from file dat/rmp/4node-base_32768_20.mps
Reading time = 2.14 seconds
: 32828 rows, 163980 columns, 5985380 nonzeros
Gurobi Optimizer version 9.0.0 build v9.0.0rc2 (linux64)
Optimize a model with 32828 rows, 163980 columns and 5985380 nonzeros
Model fingerprint: 0xa0a6e784
Coefficient statistics:
  Matrix range     [2e-04, 2e+01]
  Objective range  [2e-03, 1e+04]
  Bounds range     [0e+00, 0e+00]
  RHS range        [1e+00, 8e+01]
Ordering time: 0.04s

Barrier statistics:
 AA' NZ     : 1.666e+06
 Factor NZ  : 2.069e+06 (roughly 100 MBytes of memory)
 Factor Ops : 1.335e+08 (less than 1 second per iteration)
 Threads    : 1

                  Objective                Residual
Iter       Primal          Dual         Primal    Dual     Compl     Time
   0   2.00200579e+07  0.00000000e+00  4.87e+02 2.40e+02  4.19e+04     1s
   1   3.79999542e+05 -1.71439073e+08  8.47e+00 9.40e+02  1.90e+03     2s
   2   5.07991619e+03 -4.47207011e+07  3.77e-11 1.11e+01  2.75e+02     2s
   3   8.10966930e+02 -9.90719683e+06  1.05e-11 1.87e+00  6.08e+01     3s
   4  -4.51161599e+01 -1.22851237e+06  1.22e-11 1.71e-01  7.53e+00     3s
   5  -2.67571210e+02 -3.49079183e+04  6.89e-11 2.12e-03  2.12e-01     3s
   6  -2.86420576e+02 -8.25371137e+02  1.34e-08 1.97e-05  3.29e-03     4s
   7  -3.52464059e+02 -5.69780800e+02  1.54e-07 2.47e-06  1.33e-03     4s
   8  -3.62777137e+02 -4.97178203e+02  8.88e-07 1.47e-06  8.20e-04     5s
   9  -3.82194827e+02 -4.63849966e+02  2.78e-06 5.43e-07  4.98e-04     5s
  10  -3.87326836e+02 -4.46519812e+02  3.74e-06 1.82e-07  3.61e-04     5s
  11  -3.98276288e+02 -4.34416551e+02  6.34e-06 8.22e-08  2.20e-04     6s
  12  -4.06597796e+02 -4.28935440e+02  2.93e-06 2.71e-08  1.36e-04     7s
  13  -4.10062233e+02 -4.25576867e+02  2.23e-06 5.72e-09  9.46e-05     7s
  14  -4.13629037e+02 -4.23194234e+02  2.64e-06 2.85e-09  5.83e-05     8s
  15  -4.15277629e+02 -4.21926096e+02  2.08e-06 1.61e-09  4.06e-05     9s
  16  -4.16259349e+02 -4.21418714e+02  3.15e-06 1.41e-09  3.15e-05    11s
  17  -4.17698302e+02 -4.20748642e+02  3.80e-06 6.79e-10  1.86e-05    14s
  18  -4.17698880e+02 -4.20677562e+02  1.40e-05 6.28e-10  1.82e-05    14s
  19  -4.17700967e+02 -4.20546788e+02  4.10e-05 5.93e-10  1.74e-05    15s
  20  -4.18319889e+02 -4.20428312e+02  4.34e-05 4.78e-10  1.29e-05    16s
  21  -4.18322300e+02 -4.20390410e+02  4.39e-05 4.45e-10  1.26e-05    17s
  22  -4.18324743e+02 -4.20289699e+02  4.60e-05 3.52e-10  1.20e-05    18s
  23  -4.18327726e+02 -4.20279939e+02  5.47e-05 3.41e-10  1.19e-05    18s
  24  -4.18329273e+02 -4.20238747e+02  1.71e-04 3.00e-10  1.16e-05    19s
  25  -4.18331458e+02 -4.20237023e+02  1.73e-04 2.99e-10  1.16e-05    20s
  26  -4.18334642e+02 -4.20232027e+02  9.42e-05 2.94e-10  1.16e-05    20s
  27  -4.18336091e+02 -4.20195481e+02  1.03e-04 2.42e-10  1.13e-05    21s
  28  -4.18346463e+02 -4.20180390e+02  1.18e-04 2.28e-10  1.12e-05    22s
  29  -4.18359715e+02 -4.20162431e+02  1.67e-04 2.11e-10  1.10e-05    22s
  30  -4.18397287e+02 -4.20131049e+02  2.02e-04 1.82e-10  1.06e-05    23s
  31  -4.18413751e+02 -4.20107189e+02  3.37e-04 1.53e-10  1.03e-05    23s
  32  -4.18512544e+02 -4.20078756e+02  3.23e-04 1.27e-10  9.55e-06    24s
  33  -4.18548649e+02 -4.20061632e+02  5.18e-04 9.15e-11  9.24e-06    25s
  34  -4.18611146e+02 -4.20045838e+02  8.56e-04 7.41e-11  8.76e-06    25s
  35  -4.18687177e+02 -4.20026575e+02  6.86e-04 5.67e-11  8.17e-06    26s
  36  -4.18843363e+02 -4.20015337e+02  9.81e-04 1.51e-10  7.19e-06    26s
  37  -4.18904185e+02 -4.20001919e+02  1.24e-03 7.82e-11  6.77e-06    27s
  38  -4.19039966e+02 -4.19994280e+02  2.17e-03 1.98e-11  5.97e-06    27s
  39  -4.19196790e+02 -4.19991282e+02  2.72e-03 1.92e-11  5.00e-06    28s
  40  -4.19358391e+02 -4.19987803e+02  3.88e-03 1.80e-11  4.04e-06    29s
  41  -4.19390409e+02 -4.19983968e+02  4.72e-03 1.52e-11  3.89e-06    29s
  42  -4.19468887e+02 -4.19978608e+02  5.02e-03 1.46e-11  3.37e-06    30s
  43  -4.19529557e+02 -4.19974514e+02  4.97e-03 1.46e-11  2.92e-06    30s
  44  -4.19636899e+02 -4.19972541e+02  4.72e-03 1.46e-11  2.28e-06    31s
  45  -4.19637735e+02 -4.19972462e+02  4.63e-03 1.46e-11  2.28e-06    31s
  46  -4.19645320e+02 -4.19972286e+02  4.29e-03 1.46e-11  2.21e-06    32s
  47  -4.19660958e+02 -4.19971564e+02  4.22e-03 1.46e-11  2.12e-06    33s
  48  -4.19708599e+02 -4.19971086e+02  4.01e-03 1.46e-11  1.80e-06    33s
  49  -4.19745512e+02 -4.19969915e+02  4.99e-03 1.46e-11  1.75e-06    34s
  50  -4.19756000e+02 -4.19969962e+02  4.77e-03 1.46e-11  1.66e-06    34s
  51  -4.19777171e+02 -4.19969658e+02  4.49e-03 1.46e-11  1.56e-06    35s
  52  -4.19807765e+02 -4.19969554e+02  4.53e-03 1.46e-11  1.43e-06    35s
  53  -4.19813348e+02 -4.19969459e+02  4.56e-03 1.46e-11  1.39e-06    36s
  54  -4.19818170e+02 -4.19968930e+02  4.62e-03 1.46e-11  1.36e-06    37s
  55  -4.19831698e+02 -4.19968851e+02  5.19e-03 1.46e-11  1.24e-06    37s
  56  -4.19832839e+02 -4.19968832e+02  4.79e-03 1.46e-11  1.21e-06    38s
  57  -4.19841598e+02 -4.19968604e+02  5.44e-03 2.91e-11  1.19e-06    38s
  58  -4.19849430e+02 -4.19968526e+02  5.59e-03 2.91e-11  1.15e-06    39s
  59  -4.19849938e+02 -4.19968470e+02  5.58e-03 1.46e-11  1.15e-06    39s
  60  -4.19848581e+02 -4.19968439e+02  5.49e-03 2.91e-11  1.14e-06    40s
  61  -4.19855074e+02 -4.19968387e+02  5.48e-03 1.46e-11  1.13e-06    40s
  62  -4.19857704e+02 -4.19968284e+02  5.49e-03 1.46e-11  1.12e-06    41s
  63  -4.19863029e+02 -4.19967787e+02  5.26e-03 2.57e-12  1.03e-06    41s
  64  -4.19866674e+02 -4.19967326e+02  5.26e-03 1.46e-11  9.98e-07    42s
  65  -4.19876021e+02 -4.19967106e+02  5.01e-03 1.46e-11  9.03e-07    43s
  66  -4.19884353e+02 -4.19966552e+02  4.94e-03 1.46e-11  8.43e-07    44s
  67  -4.19883878e+02 -4.19966526e+02  4.77e-03 1.46e-11  8.43e-07    44s
  68  -4.19893250e+02 -4.19966425e+02  4.74e-03 1.46e-11  7.68e-07    45s
  69  -4.19898782e+02 -4.19964662e+02  4.43e-03 1.46e-11  6.88e-07    46s
  70  -4.19903293e+02 -4.19964512e+02  4.40e-03 1.46e-11  6.55e-07    46s
  71  -4.19907839e+02 -4.19964466e+02  4.54e-03 2.91e-11  6.21e-07    47s
  72  -4.19910577e+02 -4.19964338e+02  4.62e-03 1.46e-11  5.89e-07    48s
  73  -4.19916832e+02 -4.19964318e+02  4.77e-03 1.46e-11  5.63e-07    49s
  74  -4.19918324e+02 -4.19964329e+02  4.71e-03 1.46e-11  5.63e-07    49s
  75  -4.19923362e+02 -4.19964352e+02  4.95e-03 1.46e-11  5.49e-07    50s
  76  -4.19920984e+02 -4.19964261e+02  4.40e-03 1.46e-11  4.89e-07    50s
  77  -4.19934579e+02 -4.19964255e+02  6.28e-03 1.46e-11  4.34e-07    51s
  78  -4.19935067e+02 -4.19964240e+02  6.02e-03 1.46e-11  4.31e-07    52s
  79  -4.19939258e+02 -4.19964190e+02  6.17e-03 1.46e-11  4.08e-07    52s
  80  -4.19939965e+02 -4.19964053e+02  5.99e-03 1.46e-11  3.88e-07    53s
  81  -4.19948129e+02 -4.19963842e+02  5.64e-03 1.46e-11  3.56e-07    54s
  82  -4.19957424e+02 -4.19963694e+02  5.06e-03 1.46e-11  2.91e-07    54s
  83  -4.19957986e+02 -4.19963656e+02  5.17e-03 1.46e-11  2.86e-07    55s
  84  -4.19960448e+02 -4.19963676e+02  5.08e-03 1.46e-11  2.75e-07    55s
  85  -4.19971679e+02 -4.19963742e+02  5.40e-03 1.46e-11  2.49e-07    56s
  86  -4.19969498e+02 -4.19963749e+02  5.31e-03 1.46e-11  2.48e-07    57s
  87  -4.19993748e+02 -4.19963744e+02  8.05e-03 1.46e-11  2.39e-07    57s
  88  -4.19994810e+02 -4.19963784e+02  8.08e-03 1.46e-11  2.35e-07    58s
  89  -4.19994927e+02 -4.19963646e+02  7.95e-03 1.46e-11  2.26e-07    59s
  90  -4.20016625e+02 -4.19963728e+02  8.91e-03 1.46e-11  1.69e-07    60s
  91  -4.20001132e+02 -4.19963701e+02  7.39e-03 1.46e-11  1.43e-07    60s
  92  -4.20010498e+02 -4.19963673e+02  7.34e-03 1.46e-11  1.12e-07    61s
  93  -4.20008249e+02 -4.19963644e+02  7.29e-03 1.46e-11  1.11e-07    61s
  94  -4.20008693e+02 -4.19963670e+02  7.38e-03 2.91e-11  1.11e-07    62s
  95  -4.20008338e+02 -4.19963672e+02  7.34e-03 1.46e-11  1.10e-07    62s
  96  -4.20013674e+02 -4.19963671e+02  7.82e-03 7.28e-12  1.09e-07    63s
  97  -4.20014072e+02 -4.19963663e+02  8.04e-03 1.46e-11  1.08e-07    63s
  98  -4.19998879e+02 -4.19963693e+02  7.17e-03 1.46e-11  8.67e-08    64s
  99  -4.19998147e+02 -4.19963650e+02  6.87e-03 1.46e-11  8.28e-08    64s
 100  -4.19998849e+02 -4.19963645e+02  6.48e-03 1.46e-11  7.55e-08    65s
 101  -4.19997115e+02 -4.19963872e+02  6.26e-03 1.46e-11  7.00e-08    66s
 102  -4.19997697e+02 -4.19963879e+02  6.35e-03 1.46e-11  6.98e-08    67s
 103  -4.20002476e+02 -4.19963920e+02  6.83e-03 1.46e-11  6.31e-08    67s
 104  -4.20001893e+02 -4.19963856e+02  6.77e-03 1.46e-11  6.27e-08    68s
 105  -4.19992838e+02 -4.19963822e+02  6.58e-03 1.46e-11  5.53e-08    69s
 106  -4.19993055e+02 -4.19963804e+02  6.58e-03 8.16e-14  5.51e-08    69s
 107  -4.19997055e+02 -4.19963887e+02  6.24e-03 1.46e-11  5.46e-08    70s
 108  -4.19996527e+02 -4.19963885e+02  6.27e-03 1.46e-11  5.46e-08    70s
 109  -4.19997340e+02 -4.19963886e+02  6.01e-03 7.28e-12  5.32e-08    71s
 110  -4.19997932e+02 -4.19963899e+02  6.16e-03 1.46e-11  5.21e-08    72s
 111  -4.19997938e+02 -4.19963841e+02  6.19e-03 1.46e-11  5.20e-08    72s
 112  -4.19998014e+02 -4.19963911e+02  6.24e-03 1.46e-11  5.12e-08    73s
 113  -4.19995615e+02 -4.19963881e+02  6.03e-03 1.46e-11  4.92e-08    74s
 114  -4.19994284e+02 -4.19963903e+02  6.04e-03 1.46e-11  4.79e-08    74s
 115  -4.19992736e+02 -4.19963870e+02  5.84e-03 1.46e-11  4.66e-08    75s
 116  -4.19992636e+02 -4.19963929e+02  5.82e-03 1.46e-11  4.63e-08    75s
 117  -4.19993045e+02 -4.19963927e+02  5.76e-03 1.46e-11  4.60e-08    76s
 118  -4.19986430e+02 -4.19963958e+02  5.27e-03 1.46e-11  4.58e-08    77s
 119  -4.19985864e+02 -4.19963967e+02  5.47e-03 1.46e-11  4.44e-08    77s
 120  -4.19986226e+02 -4.19963970e+02  5.47e-03 1.46e-11  4.32e-08    78s
 121  -4.19988854e+02 -4.19963911e+02  5.31e-03 1.46e-11  4.31e-08    78s
 122  -4.19989395e+02 -4.19963915e+02  5.42e-03 1.46e-11  4.31e-08    79s
 123  -4.19988571e+02 -4.19963906e+02  5.34e-03 1.46e-11  4.28e-08    79s
 124  -4.19990502e+02 -4.19963914e+02  5.29e-03 1.46e-11  4.26e-08    80s
 125  -4.19990719e+02 -4.19963930e+02  5.32e-03 1.46e-11  4.25e-08    80s

Barrier performed 125 iterations in 80.08 seconds
Sub-optimal termination - objective -4.17698302e+02

Solve time: 80.086944786
Barrier iterations: 125
